SCIP Status        : solving was interrupted [time limit reached]
Total Time         :    3600.11
  solving          :    3600.00
  presolving       :       0.38 (included in solving)
  reading          :       0.11
  copying          :       0.33 (13 #copies) (minimal 0.01, maximal 0.04, average 0.03)
Original Problem   :
  Problem name     : benchmark/normal_70_28_29.design
  Variables        : 6371 (70 binary, 0 integer, 0 implicit integer, 6301 continuous)
  Constraints      : 8697 initial, 8697 maximal
  Objective        : minimize, 1 non-zeros (abs.min = 1, abs.max = 1)
Presolved Problem  :
  Problem name     : t_benchmark/normal_70_28_29.design
  Variables        : 9145 (70 binary, 0 integer, 0 implicit integer, 9075 continuous)
  Constraints      : 8697 initial, 8699 maximal
  Objective        : minimize, 1 non-zeros (abs.min = 1, abs.max = 1)
  Nonzeros         : 54154 constraint, 0 clique table
Presolvers         :   ExecTime  SetupTime  Calls  FixedVars   AggrVars   ChgTypes  ChgBounds   AddHoles    DelCons    AddCons   ChgSides   ChgCoefs
  boundshift       :       0.00       0.00      0          0          0          0          0          0          0          0          0          0
  convertinttobin  :       0.00       0.00      0          0          0          0          0          0          0          0          0          0
  domcol           :       0.00       0.00      1          0          0          0          0          0          0          0          0          0
  dualagg          :       0.00       0.00      0          0          0          0          0          0          0          0          0          0
  dualcomp         :       0.00       0.00      1          0          0          0          0          0          0          0          0          0
  dualinfer        :       0.00       0.00      0          0          0          0          0          0          0          0          0          0
  dualsparsify     :       0.00       0.00      1          0          0          0          0          0          0          0          0          0
  gateextraction   :       0.00       0.00      0          0          0          0          0          0          0          0          0          0
  implics          :       0.00       0.00      1          0          0          0          0          0          0          0          0          0
  inttobinary      :       0.00       0.00      0          0          0          0          0          0          0          0          0          0
  qpkktref         :       0.00       0.00      0          0          0          0          0          0          0          0          0          0
  redvub           :       0.00       0.00      0          0          0          0          0          0          0          0          0          0
  sparsify         :       0.00       0.00      1          0          0          0          0          0          0          0          0          0
  stuffing         :       0.00       0.00      0          0          0          0          0          0          0          0          0          0
  trivial          :       0.00       0.00      2        378          0          0          0          0          0          0          0          0
  tworowbnd        :       0.00       0.00      0          0          0          0          0          0          0          0          0          0
  dualfix          :       0.00       0.00      2        378          0          0          0          0          0          0          0          0
  genvbounds       :       0.00       0.00      0          0          0          0          0          0          0          0          0          0
  probing          :       0.08       0.00      1          0          0          0          0          0          0          0          0          0
  pseudoobj        :       0.00       0.00      0          0          0          0          0          0          0          0          0          0
  symmetry         :       0.05       0.00      1          0          0          0          0          0          0          0          0          0
  vbounds          :       0.00       0.00      0          0          0          0          0          0          0          0          0          0
  linear           :       0.03       0.00      3          0          0          0          0          0          0          0          0          0
  nonlinear        :       0.20       0.06      4          0          0          0        784          0          0          0          0          0
  benders          :       0.00       0.00      0          0          0          0          0          0          0          0          0          0
  components       :       0.00       0.00      1          0          0          0          0          0          0          0          0          0
  root node        :          -          -      -          0          -          -       9549          -          -          -          -          -
Constraints        :     Number  MaxNumber  #Separate #Propagate    #EnfoLP    #EnfoRelax  #EnfoPS    #Check   #ResProp    Cutoffs    DomReds       Cuts    Applied      Conss   Children
  benderslp        :          0          0          0          0       6024          0          0       1318          0          0          0          0          0          0          0
  integral         :          0          0          0          0       6024          0          0       1318          0          0       1967          0          0          0      11624
  linear           :       5952+      5954         18      82150          0          0          0       1312          0       1120    9103020          0          0          0          0
  nonlinear        :       2745       2745      13286      81030        150          0          0        533          0       2145   12638419     129647     124997          0          0
  benders          :          0          0          0          0          0          0          0          5          0          0          0          0          0          0          0
  countsols        :          0          0          0          0          0          0          0          5          0          0          0          0          0          0          0
  components       :          0          0          0          0          0          0          0          0          0          0          0          0          0          0          0
Constraint Timings :  TotalTime  SetupTime   Separate  Propagate     EnfoLP     EnfoPS     EnfoRelax   Check    ResProp    SB-Prop
  benderslp        :       0.01       0.00       0.00       0.00       0.01       0.00       0.00       0.00       0.00       0.00
  integral         :     106.38       0.00       0.00       0.00     106.38       0.00       0.00       0.00       0.00       0.00
  linear           :      31.23       0.00       0.01      29.35       0.00       0.00       0.00       1.64       0.00       0.23
  nonlinear        :     163.47       0.06      68.94      90.75       0.89       0.00       0.00       1.63       0.00       1.20
  benders          :       0.00       0.00       0.00       0.00       0.00       0.00       0.00       0.00       0.00       0.00
  countsols        :       0.00       0.00       0.00       0.00       0.00       0.00       0.00       0.00       0.00       0.00
  components       :       0.01       0.00       0.00       0.00       0.00       0.00       0.00       0.00       0.00       0.01
Propagators        : #Propagate   #ResProp    Cutoffs    DomReds
  dualfix          :          2          0          0          0
  genvbounds       :          0          0          0          0
  nlobbt           :          0          0          0          0
  obbt             :          0          0          0          0
  probing          :          0          0          0          0
  pseudoobj        :      60003          0          0         10
  redcost          :      24947          0          0        908
  rootredcost      :          4          0          0       6794
  symmetry         :          0          0          0          0
  vbounds          :       8709          0          0          0
Propagator Timings :  TotalTime  SetupTime   Presolve  Propagate    ResProp    SB-Prop
  dualfix          :       0.00       0.00       0.00       0.00       0.00       0.00
  genvbounds       :       0.07       0.00       0.00       0.07       0.00       0.00
  nlobbt           :       0.00       0.00       0.00       0.00       0.00       0.00
  obbt             :       0.00       0.00       0.00       0.00       0.00       0.00
  probing          :       0.08       0.00       0.08       0.00       0.00       0.00
  pseudoobj        :       0.11       0.00       0.00       0.11       0.00       0.00
  redcost          :       4.35       0.00       0.00       4.35       0.00       0.00
  rootredcost      :       0.14       0.00       0.00       0.14       0.00       0.00
  symmetry         :       0.11       0.00       0.05       0.06       0.00       0.00
  vbounds          :       0.06       0.00       0.00       0.06       0.00       0.00
Conflict Analysis  :       Time      Calls    Success    DomReds  Conflicts   Literals    Reconvs ReconvLits   Dualrays   Nonzeros   LP Iters   (pool size: [--,--])
  propagation      :       0.00          0          0          -          0        0.0          0        0.0          -          -          -
  infeasible LP    :       0.00          0          0          -          0        0.0          0        0.0         17      922.9          0
  bound exceed. LP :       2.58        362         17          -          0        0.0          0        0.0          0        0.0       1648
  strong branching :       0.00          0          0          -          0        0.0          0        0.0          -          -          0
  pseudo solution  :       0.00          0          0          -          0        0.0          0        0.0          -          -          -
  applied globally :       0.00          -          -          0          0        0.0          -          -         17          -          -
  applied locally  :          -          -          -          0          0        0.0          -          -          0          -          -
Separators         :   ExecTime  SetupTime      Calls  RootCalls    Cutoffs    DomReds  FoundCuts ViaPoolAdd  DirectAdd    Applied ViaPoolApp  DirectApp      Conss
  cut pool         :       0.00          -          0          0          -          -          0          0          -          -          -          -          -    (maximal pool size:          0)
  aggregation      :       1.69       0.00        242         18          0          0          0          0          0          0          0          0          0
  > cmir           :          -          -          -          -          -          -          -          0          0          0          0          0          -
  > flowcover      :          -          -          -          -          -          -          -          0          0          0          0          0          -
  > knapsackcover  :          -          -          -          -          -          -          -          0          0          0          0          0          -
  cgmip            :       0.00       0.00          0          0          0          0          0          0          0          0          0          0          0
  clique           :       0.00       0.00          1          1          0          0          0          0          0          0          0          0          0
  closecuts        :       0.00       0.00          0          0          0          0          0          0          0          0          0          0          0
  convexproj       :       0.00       0.00          0          0          0          0          0          0          0          0          0          0          0
  disjunctive      :       0.00       0.00          0          0          0          0          0          0          0          0          0          0          0
  eccuts           :       0.00       0.00          0          0          0          0          0          0          0          0          0          0          0
  gauge            :       0.00       0.00          0          0          0          0          0          0          0          0          0          0          0
  gomory           :       1.79       0.00        232         10          0          0          0          0          0          0          0          0          0
  > gomorymi       :          -          -          -          -          -          -          -          0          0          0          0          0          -
  > strongcg       :          -          -          -          -          -          -          -          0          0          0          0          0          -
  impliedbounds    :       0.09       0.00        242         18          0          0          0          0          0          0          0          0          0
  interminor       :       0.00       0.00          0          0          0          0          0          0          0          0          0          0          0
  intobj           :       0.00       0.00          0          0          0          0          0          0          0          0          0          0          0
  mcf              :       0.02       0.00          2          2          0          0          0          0          0          0          0          0          0
  minor            :       0.00       0.00          0          0          0          0          0          0          0          0          0          0          0
  mixing           :       0.01       0.00        242         18          0          0          0          0          0          0          0          0          0
  oddcycle         :       0.00       0.00          0          0          0          0          0          0          0          0          0          0          0
  rapidlearning    :       0.00       0.00          0          0          0          0          0          0          0          0          0          0          0
  rlt              :       0.02       0.00         10         10          0          0          0          0          0          0          0          0          0
  zerohalf         :       0.58       0.00        240         18          0          0          0          0          0          0          0          0          0
Cutselectors       :   ExecTime  SetupTime      Calls  RootCalls   Selected     Forced   Filtered  RootSelec   RootForc   RootFilt 
  hybrid           :       0.32       0.00      12734         18     121286          0       4602      10590          0        240
Pricers            :   ExecTime  SetupTime      Calls       Vars
  problem variables:       0.00          -          0          0
Branching Rules    :   ExecTime  SetupTime   BranchLP  BranchExt   BranchPS    Cutoffs    DomReds       Cuts      Conss   Children
  allfullstrong    :       0.00       0.00          0          0          0          0          0          0          0          0
  cloud            :       0.00       0.00          0          0          0          0          0          0          0          0
  distribution     :       0.00       0.00          0          0          0          0          0          0          0          0
  fullstrong       :       0.00       0.00          0          0          0          0          0          0          0          0
  inference        :       0.00       0.00          0          0          0          0          0          0          0          0
  leastinf         :       0.00       0.00          0          0          0          0          0          0          0          0
  lookahead        :       0.00       0.00          0          0          0          0          0          0          0          0
  mostinf          :       0.00       0.00          0          0          0          0          0          0          0          0
  multaggr         :       0.00       0.00          0          0          0          0          0          0          0          0
  nodereopt        :       0.00       0.00          0          0          0          0          0          0          0          0
  pscost           :       0.00       0.00          0          0          0          0          0          0          0          0
  random           :       0.00       0.00          0          0          0          0          0          0          0          0
  relpscost        :     106.36       0.00       5874          0          0          0       1967          0          0      11624
  vanillafullstrong:       0.00       0.00          0          0          0          0          0          0          0          0
Primal Heuristics  :   ExecTime  SetupTime      Calls      Found       Best
  LP solutions     :       0.00          -          -          0          0
  relax solutions  :       0.00          -          -          0          0
  pseudo solutions :       0.00          -          -          0          0
  strong branching :       0.01          -          -          0          0
  actconsdiving    :       0.00       0.00          0          0          0
  adaptivediving   :       8.97       0.00          7          0          0
  alns             :       1.29       0.00          6          0          0
  bound            :       0.00       0.00          0          0          0
  clique           :       0.00       0.00          0          0          0
  coefdiving       :       0.00       0.00          0          0          0
  completesol      :       0.00       0.00          0          0          0
  conflictdiving   :      34.99       0.00          9          0          0
  crossover        :       0.02       0.00          0          0          0
  dins             :       0.00       0.00          0          0          0
  distributiondivin:      28.20       0.00         10          0          0
  dps              :       0.00       0.00          0          0          0
  dualval          :       0.00       0.00          0          0          0
  farkasdiving     :       0.01       0.00          0          0          0
  feaspump         :      29.21       0.00          5          0          0
  fixandinfer      :       0.00       0.00          0          0          0
  fracdiving       :      12.66       0.00         10          0          0
  gins             :       0.03       0.00          0          0          0
  guideddiving     :      10.73       0.00          9          0          0
  indicator        :       0.02       0.00          0          0          0
  indicatordiving  :       0.00       0.00          0          0          0
  intdiving        :       0.00       0.00          0          0          0
  intshifting      :       2.52       0.00          4          0          0
  linesearchdiving :      14.58       0.00          9          0          0
  localbranching   :       0.00       0.00          0          0          0
  locks            :       0.15       0.00          1          0          0
  lpface           :       0.02       0.00          0          0          0
  mpec             :      86.85       0.00         11          0          0
  multistart       :       0.00       0.00          0          0          0
  mutation         :       0.00       0.00          0          0          0
  nlpdiving        :      12.47       0.00          7          0          0
  objpscostdiving  :      79.60       0.00          3          0          0
  octane           :       0.00       0.00          0          0          0
  ofins            :       0.00       0.00          0          0          0
  oneopt           :       0.04       0.00          4          0          0
  padm             :       0.00       0.00          0          0          0
  proximity        :       0.00       0.00          0          0          0
  pscostdiving     :      18.93       0.00         10          0          0
  randrounding     :       3.25       0.00       1145          0          0
  rens             :       0.00       0.00          0          0          0
  reoptsols        :       0.00       0.00          0          0          0
  repair           :       0.00       0.00          0          0          0
  rins             :     115.21       0.00          7          0          0
  rootsoldiving    :      15.56       0.00          5          0          0
  rounding         :       0.95       0.00       1880          0          0
  shiftandpropagate:       0.12       0.00          1          0          0
  shifting         :       0.70       0.00        555          0          0
  simplerounding   :       0.02       0.00          0          0          0
  subnlp           :      32.81       0.00         17          4          4
  trivial          :       0.02       0.00          2          0          0
  trivialnegation  :       0.00       0.00          0          0          0
  trustregion      :       0.00       0.00          0          0          0
  trysol           :       0.01       0.00          0          0          0
  twoopt           :       0.00       0.00          0          0          0
  undercover       :       3.34       0.00          1          0          0
  vbounds          :       0.00       0.00          0          0          0
  veclendiving     :      10.41       0.00          9          0          0
  zeroobj          :       0.00       0.00          0          0          0
  zirounding       :       0.09       0.00       1000          0          0
  other solutions  :          -          -          -          0          -
Diving (single)    :      Calls      Nodes   LP Iters Backtracks  Conflicts   MinDepth   MaxDepth   AvgDepth  RoundSols  NLeafSols  MinSolDpt  MaxSolDpt  AvgSolDpt
  actconsdiving    :          0          -          -          -          -          -          -          -          -          -          -          -          -
  coefdiving       :          0          -          -          -          -          -          -          -          -          -          -          -          -
  conflictdiving   :          9        340     102414          0          0         44         60       51.0          0          -          -          -          -
  distributiondivin:         10        327      67623          0          0         38         65       46.3          0          -          -          -          -
  farkasdiving     :          0          -          -          -          -          -          -          -          -          -          -          -          -
  fracdiving       :         10        515      36630          0          0         64         70       68.3          0          -          -          -          -
  guideddiving     :          9        497      34220          0          0         63         70       67.8          0          -          -          -          -
  indicatordiving  :          0          -          -          -          -          -          -          -          -          -          -          -          -
  linesearchdiving :          9        448      42885          0          0         59         69       64.0          0          -          -          -          -
  pscostdiving     :         10        563      53927          0          0         68         70       69.5          0          -          -          -          -
  veclendiving     :          9        221      30582          0          0         35         44       38.6          0          -          -          -          -
Diving (adaptive)  :      Calls      Nodes   LP Iters Backtracks  Conflicts   MinDepth   MaxDepth   AvgDepth  RoundSols  NLeafSols  MinSolDpt  MaxSolDpt  AvgSolDpt
  actconsdiving    :          0          -          -          -          -          -          -          -          -          -          -          -          -
  coefdiving       :          1         27       3010          0          0         37         37       37.0          0          -          -          -          -
  conflictdiving   :          0          -          -          -          -          -          -          -          -          -          -          -          -
  distributiondivin:          0          -          -          -          -          -          -          -          -          -          -          -          -
  farkasdiving     :          0          -          -          -          -          -          -          -          -          -          -          -          -
  fracdiving       :          0          -          -          -          -          -          -          -          -          -          -          -          -
  guideddiving     :          0          -          -          -          -          -          -          -          -          -          -          -          -
  indicatordiving  :          0          -          -          -          -          -          -          -          -          -          -          -          -
  linesearchdiving :          3        153      16409          0          0         59         67       63.0          0          -          -          -          -
  pscostdiving     :          2        104       8671          0          0         69         70       69.5          0          -          -          -          -
  veclendiving     :          1         26       1508          0          0         39         39       39.0          0          -          -          -          -
Neighborhoods      :      Calls  SetupTime  SolveTime SolveNodes       Sols       Best       Exp3  EpsGreedy        UCB TgtFixRate  Opt  Inf Node Stal  Sol  Usr Othr Actv
  rens             :          1       0.05       0.17          0          0          0    0.00000   -1.00000    1.00000      0.900    0    0    0    0    0    0    1    1
  rins             :          1       0.05       0.18          0          0          0    0.00000   -1.00000    1.00000      0.900    0    0    0    0    0    0    1    1
  mutation         :          1       0.05       0.20          0          0          0    0.00000   -1.00000    1.00000      0.900    0    0    0    0    0    0    1    1
  localbranching   :          1       0.05       0.20          0          0          0    0.00000   -1.00000    1.00000      0.900    0    0    0    0    0    0    1    1
  crossover        :          1       0.05       0.17          0          0          0    0.00000   -1.00000    1.00000      0.900    0    0    0    0    0    0    1    1
  proximity        :          0       0.00       0.00          0          0          0    0.00000   -1.00000    1.00000      0.900    0    0    0    0    0    0    0    1
  zeroobjective    :          1       0.01       0.00          0          0          0    0.00000   -1.00000    1.00000      0.900    0    0    0    0    0    0    1    1
  dins             :          0       0.00       0.00          0          0          0    0.00000   -1.00000    1.00000      0.900    0    0    0    0    0    0    0    1
  trustregion      :          0       0.00       0.00          0          0          0    0.00000   -1.00000    1.00000      0.900    0    0    0    0    0    0    0    0
Expressions        :   #IntEval  IntEvalTi   #RevProp  RevPropTi    DomReds    Cutoffs  #Estimate  EstimTime  Branching  #Simplify SimplifyTi Simplified
  pow              :   14909604       3.55    6781653       1.55    6473509          0      96221       0.01          0       6328       0.00          0
  prod             :    9988982       2.91      24881       0.02        254          0          0       0.00          0       3922       0.00       1960
  sum              :   14399007       3.43   10123754       3.33    2255488        401        785       0.00          0       6274       0.01        785
  var              :   29957625       6.96          0       0.00          0          0          0       0.00          0      15737       0.00          0
  varidx           :          0       0.00          0       0.00          0          0          0       0.00          0          0       0.00          0
Nonlinear Conshdlr :   WeakSepa  TightenLP DespTghtLP DespBranch DespCutoff    ForceLP  CanonTime
  enforce          :       2933          0          0          0          0          0
  presolve         :                                                                         0.14
Nlhdlrs            :    Detects  DetectAll DetectTime   #IntEval  IntEvalTi   #RevProp  RevPropTi    DomReds    Cutoffs   #Enforce   EnfoTime       Cuts  Branching
  soc              :       1960       1960       0.02          0       0.00          0       0.00          0          0   13053906      20.03      24013          0
  convex           :          1          1       0.02          0       0.00          0       0.00          0          0      10200       0.08      10197          0
  concave          :          0          0       0.00          0       0.00          0       0.00          0          0          0       0.00          0          0
  quotient         :          0          0       0.01          0       0.00          0       0.00          0          0          0       0.00          0          0
  quadratic        :          0          0       0.00          0       0.00          0       0.00          0          0          0       0.00          0          0
  default          :      13065      65325       0.02   39286471      23.51   16947049      29.94    8729251        401      97006       0.10      95437          0
  bilinear         :          0          0       0.00          0       0.00          0       0.00          0          0          0       0.00          0          0
  perspective      :          0          0       0.01          0       0.00          0       0.00          0          0          0       0.00          0          0
LP                 :       Time      Calls Iterations  Iter/call   Iter/sec  Time-0-It Calls-0-It    ItLimit
  primal LP        :    1450.25       5222          0       0.00       0.00    1450.22       5222
  dual LP          :    1246.74      24836    2163093      89.34    1735.00       1.29        625
  lex dual LP      :       0.00          0          0       0.00          -
  barrier LP       :       0.00          0          0       0.00          -       0.00          0
  resolve instable :       0.00          0          0       0.00          -
  diving/probing LP:     247.27       1008     650296     645.13    2629.90
  strong branching :      99.07        300     213124     710.41    2151.25          -          -        437
    (at root node) :          -         25      24867     994.68          -
  conflict analysis:       1.00        180       1648       9.16    1648.00
NLP relaxation     :
  solve time       :      12.33 (10 calls)
  convexity        :  nonconvex (464 linear rows, 785 convex ineq., 1960 nonconvex ineq., 0 nonlinear eq. or two-sided ineq.)
NLP Solvers        :  #Problems  ProblemTi    #Solves  SolveTime      #Iter  Time/Iter      #Okay #TimeLimit #IterLimit #LObjLimit #Interrupt  #NumError #EvalError  #OutOfMem #LicenseEr #OtherTerm   #GlobOpt    #LocOpt  #Feasible #LocInfeas #GlobInfea #Unbounded   #Unknown
  ipopt            :         29       8.53         34     126.20       2733       0.05         28          0          6          0          0          0          0          0          0          0          0          6          1         15          0          0         12
B&B Tree           :
  number of runs   :          1
  nodes            :      10927 (5812 internal, 5115 leaves)
  feasible leaves  :          0
  infeas. leaves   :          0
  objective leaves :       5114
  nodes (total)    :      10927 (5812 internal, 5115 leaves)
  nodes left       :        680
  max depth        :         69
  max depth (total):         69
  backtracks       :        978 (9.0%)
  early backtracks :          0 (0.0%)
  nodes exc. ref.  :          0 (0.0%)
  delayed cutoffs  :          0
  repropagations   :          6 (0 domain reductions, 0 cutoffs)
  avg switch length:       3.08
  switching time   :    1488.51
Estim. Tree Size   :      21890
Estimation Tree    : 11625 nodes (10945 visited, 5812 internal, 5133 leaves, 680 open), weight: 0.0000 completed 0.0254
Estimations        :      estim      value      trend resolution     smooth
  wbe              : 5633477979113623          -          -          -          -
  tree-profile     :         -1          -          -          -          -
  gap              :     348967    0.53802    0.00002          8     543769
  tree-weight      :      21890    0.00000    0.00000          8      21755
  leaf-frequency   :      21890    0.46894   -0.00002          8      23954
  ssg              :     558755    0.95989   -0.00003          8     624093
  open-nodes       :      21890  680.00000    1.08614          8      21755
Root Node          :
  First LP value   : -1.16059502419408e+00
  First LP Iters   :      25051 (4371.90 Iter/sec)
  First LP Time    :       5.73
  Final Dual Bound : -4.75166713239861e-01
  Final Root Iters :      56965
  Root LP Estimate : +1.32468088025500e+00
Solution           :
  Solutions found  :          4 (4 improvements)
  First Solution   : -2.10192351280317e-01   (in run 1, after 1 nodes, 17.68 seconds, depth 0, found by <feaspump>)
  Gap First Sol.   :     452.16 %
  Gap Last Sol.    :      86.60 %
  Primal Bound     : -2.40019244036387e-01   (in run 1, after 7932 nodes, 2446.01 seconds, depth 58, found by <guideddiving>)
  Dual Bound       : -4.46118519253237e-01
  Gap              :      85.87 %
Integrals          :      Total       Avg%
  primal-dual      :  176128.77      48.92
  primal-ref       :          -          - (not evaluated)
  dual-ref         :          -          - (not evaluated)
